NAME : n80w40.002.618.tour
COMMENT : Length = 618
COMMENT : Found by LKH [Keld Helsgaun] Tue May  2 05:18:28 2017
TYPE : TOUR
DIMENSION : 81
TOUR_SECTION
1
42
50
75
53
20
44
67
79
27
66
65
37
4
21
13
24
72
64
18
10
26
62
28
33
73
25
45
80
11
63
36
54
15
48
46
12
6
76
51
32
49
9
5
52
31
19
56
23
8
60
43
61
70
57
22
30
34
7
59
74
71
35
55
77
39
38
16
3
58
29
41
17
69
78
40
47
2
14
81
68
-1
EOF
